NAME: tsp35_19
COMMENT: 35-tsp problem (Padberg/Rinaldi)
TYPE: TSP
DIMENSION: 35
EDGE_WEIGHT_TYPE : EUC_2D
NODE_COORD_SECTION
1 19 21
2 12 40
3 17 28
4 18 24
5 27 15
6 40 13
7 11 14
8 4 29
9 32 9
10 36 32
11 34 37
12 14 7
13 25 1
14 16 20
15 38 32
16 34 38
17 14 3
18 16 21
19 35 9
20 24 19
21 20 20
22 2 39
23 31 35
24 39 25
25 19 24
26 36 4
27 4 10
28 7 2
29 23 18
30 8 6
31 8 16
32 20 2
33 13 33
34 30 13
35 30 4
